LatticeConstant 1.0 Ang
%block LatticeVectors
 16.95148100 0.00000000 0.00000000
 0.00000000 13.45582900 0.00000000
 0.00000000 0.00000000 10.00000000
%endblock LatticeVectors

NumberOfAtoms 23
AtomicCoordinatesFormat Ang
%block AtomicCoordinatesAndAtomicSpecies
  5.52679200  1.10577600  0.00000000 1 #  1: O
  6.31931300 -1.04293500 -0.00000000 1 #  2: O
  2.83630000  0.21055500  0.00000000 2 #  3: C
  3.68212000  0.59636700  0.00000000 2 #  4: C
  4.74670100  0.42159000 -0.00000000 2 #  5: C
  1.92937200  0.72817900 -0.00000000 2 #  6: C
  2.88905600 -1.08788000  0.00000000 2 #  7: C
  6.27871500  0.15135700  0.00000000 2 #  8: C
  7.22798400  0.77697700 -0.00000000 2 #  9: C
  2.82591400  1.17998500 -0.00000000 3 # 10: H
  4.33529800  1.54142600 -0.00000000 3 # 11: H
  3.22066300  1.63592000  0.00000000 3 # 12: H
  4.03583900 -0.52293300  0.00000000 3 # 13: H
  5.19480000 -0.56751900  0.00000000 3 # 14: H
  2.42029000  1.69439400  0.00000000 3 # 15: H
  1.11765800  1.26842000  0.00000000 3 # 16: H
  1.44553800 -0.12537300 -0.00000000 3 # 17: H
  1.84473400 -0.79181400  0.00000000 3 # 18: H
  2.86404000 -1.76143500 -0.00000000 3 # 19: H
  3.84614300 -0.82177000  0.00000000 3 # 20: H
  7.72391500 -0.11169400 -0.00000000 3 # 21: H
  8.06913900  1.25308900  0.00000000 3 # 22: H
  6.71530400  1.63977000 -0.00000000 3 # 23: H
%endblock AtomicCoordinatesAndAtomicSpecies

NumberOfSpecies 3
%block ChemicalSpeciesLabel
 1 8 O
 2 6 C
 3 1 H
%endblock ChemicalSpeciesLabel
