LatticeConstant 1.0 Ang
%block LatticeVectors
 16.27000000 0.00000000 0.00000000
 0.00000000 12.65690000 0.00000000
 0.00000000 0.00000000 10.00000000
%endblock LatticeVectors

NumberOfAtoms 23
AtomicCoordinatesFormat Ang
%block AtomicCoordinatesAndAtomicSpecies
  5.46410000  0.75000000  0.00000000 1 #  1: O
  6.33010000 -0.75000000  0.00000000 1 #  2: O
  2.86600000  0.25000000  0.00000000 2 #  3: C
  3.73210000  0.75000000  0.00000000 2 #  4: C
  4.59810000  0.25000000  0.00000000 2 #  5: C
  2.00000000  0.75000000  0.00000000 2 #  6: C
  2.86600000 -0.75000000  0.00000000 2 #  7: C
  6.33010000  0.25000000  0.00000000 2 #  8: C
  7.19620000  0.75000000  0.00000000 2 #  9: C
  2.86600000  0.87000000  0.00000000 3 # 10: H
  4.13060000  1.22500000  0.00000000 3 # 11: H
  3.33350000  1.22500000  0.00000000 3 # 12: H
  4.19960000 -0.22490000  0.00000000 3 # 13: H
  4.99660000 -0.22490000  0.00000000 3 # 14: H
  2.31000000  1.28690000  0.00000000 3 # 15: H
  1.46310000  1.06000000  0.00000000 3 # 16: H
  1.69000000  0.21310000  0.00000000 3 # 17: H
  2.24600000 -0.75000000  0.00000000 3 # 18: H
  2.86600000 -1.37000000  0.00000000 3 # 19: H
  3.48600000 -0.75000000  0.00000000 3 # 20: H
  7.50620000  0.21310000  0.00000000 3 # 21: H
  7.73310000  1.06000000  0.00000000 3 # 22: H
  6.88620000  1.28690000  0.00000000 3 # 23: H
%endblock AtomicCoordinatesAndAtomicSpecies

NumberOfSpecies 3
%block ChemicalSpeciesLabel
 1 8 O
 2 6 C
 3 1 H
%endblock ChemicalSpeciesLabel
